\ LP format - for model browsing. Use MPS format to capture full model detail.
Minimize
  y + 0 r4
Subject To
 c1: x1 + 27 r1 <= 15
 c2: - y + y1 <= -28
 c3: x2 + 19 r2 <= 15
 c4: - y + y2 <= -20
 c5: x3 + 26 r3 <= 15
 c6: - y + y3 <= -27
 c7: x4 <= 15
 c8: - y + y4 <= -1
 c9: x1 + 27 r1 - 16 p12 - 16 q12 - x2 <= -1
 c10: - 27 r1 + y1 - 16 p12 + 16 q12 - y2 <= -12
 c11: x1 - 16 p12 + 16 q12 - x2 - 19 r2 >= -15
 c12: y1 - 16 p12 - 16 q12 + 19 r2 - y2 >= -12
 c13: x1 + 27 r1 - 16 p13 - 16 q13 - x3 <= -1
 c14: - 27 r1 + y1 - 16 p13 + 16 q13 - y3 <= -12
 c15: x1 - 16 p13 + 16 q13 - x3 - 26 r3 >= -15
 c16: y1 - 16 p13 - 16 q13 + 26 r3 - y3 >= -5
 c17: x1 + 27 r1 - 16 p14 - 16 q14 - x4 <= -1
 c18: - 27 r1 + y1 - 16 p14 + 16 q14 - y4 <= -12
 c19: x1 - 16 p14 + 16 q14 - x4 >= -15
 c20: y1 - 16 p14 - 16 q14 - y4 >= -31
 c21: x2 + 19 r2 - 16 p23 - 16 q23 - x3 <= -1
 c22: - 19 r2 + y2 - 16 p23 + 16 q23 - y3 <= -4
 c23: x2 - 16 p23 + 16 q23 - x3 - 26 r3 >= -15
 c24: y2 - 16 p23 - 16 q23 + 26 r3 - y3 >= -5
 c25: x2 + 19 r2 - 16 p24 - 16 q24 - x4 <= -1
 c26: - 19 r2 + y2 - 16 p24 + 16 q24 - y4 <= -4
 c27: x2 - 16 p24 + 16 q24 - x4 >= -15
 c28: y2 - 16 p24 - 16 q24 - y4 >= -31
 c29: x3 + 26 r3 - 16 p34 - 16 q34 - x4 <= -1
 c30: - 26 r3 + y3 - 16 p34 + 16 q34 - y4 <= -11
 c31: x3 - 16 p34 + 16 q34 - x4 >= -15
 c32: y3 - 16 p34 - 16 q34 - y4 >= -31
Bounds
 r1 <= 1
 p12 <= 1
 q12 <= 1
 p13 <= 1
 q13 <= 1
 p14 <= 1
 q14 <= 1
 r2 <= 1
 p23 <= 1
 q23 <= 1
 p24 <= 1
 q24 <= 1
 r3 <= 1
 p34 <= 1
 q34 <= 1
 r4 <= 1
Generals
 x1 r1 y1 p12 q12 p13 q13 p14 q14 x2 r2 y2 p23 q23 p24 q24 x3 r3 y3 p34 q34
 x4 r4 y4
End
